c Reduced graph for miles1000_4 generated by Cyril Grelier
p edge 98 2704
v 1 19
v 2 19
v 3 19
v 4 19
v 5 19
v 6 18
v 7 18
v 8 18
v 9 17
v 10 17
v 11 17
v 12 17
v 13 17
v 14 17
v 15 17
v 16 16
v 17 16
v 18 16
v 19 16
v 20 16
v 21 15
v 22 15
v 23 15
v 24 15
v 25 15
v 26 15
v 27 14
v 28 14
v 29 14
v 30 14
v 31 14
v 32 14
v 33 13
v 34 13
v 35 13
v 36 13
v 37 13
v 38 13
v 39 13
v 40 13
v 41 12
v 42 12
v 43 12
v 44 12
v 45 12
v 46 11
v 47 11
v 48 11
v 49 11
v 50 11
v 51 11
v 52 11
v 53 10
v 54 10
v 55 10
v 56 9
v 57 9
v 58 9
v 59 9
v 60 8
v 61 8
v 62 8
v 63 8
v 64 7
v 65 7
v 66 7
v 67 7
v 68 7
v 69 6
v 70 6
v 71 6
v 72 6
v 73 6
v 74 5
v 75 5
v 76 5
v 77 4
v 78 4
v 79 4
v 80 4
v 81 4
v 82 4
v 83 4
v 84 4
v 85 3
v 86 3
v 87 3
v 88 3
v 89 3
v 90 3
v 91 2
v 92 2
v 93 2
v 94 2
v 95 2
v 96 1
v 97 1
v 98 1
e 1 2
e 1 6
e 1 7
e 1 9
e 1 10
e 1 11
e 1 13
e 1 16
e 1 17
e 1 18
e 1 19
e 1 20
e 1 21
e 1 22
e 1 23
e 1 27
e 1 28
e 1 29
e 1 30
e 1 33
e 1 34
e 1 35
e 1 36
e 1 37
e 1 38
e 1 39
e 1 41
e 1 42
e 1 43
e 1 46
e 1 47
e 1 48
e 1 49
e 1 53
e 1 54
e 1 56
e 1 58
e 1 59
e 1 60
e 1 61
e 1 62
e 1 64
e 1 65
e 1 66
e 1 67
e 1 69
e 1 70
e 1 71
e 1 72
e 1 73
e 1 74
e 1 75
e 1 76
e 1 77
e 1 78
e 1 79
e 1 80
e 1 81
e 1 83
e 1 85
e 1 86
e 1 87
e 1 89
e 1 91
e 1 93
e 1 94
e 1 95
e 1 96
e 1 98
e 2 5
e 2 6
e 2 7
e 2 9
e 2 10
e 2 11
e 2 16
e 2 17
e 2 18
e 2 19
e 2 20
e 2 21
e 2 22
e 2 23
e 2 25
e 2 26
e 2 27
e 2 28
e 2 29
e 2 32
e 2 33
e 2 34
e 2 35
e 2 37
e 2 38
e 2 39
e 2 42
e 2 43
e 2 45
e 2 46
e 2 47
e 2 49
e 2 50
e 2 51
e 2 53
e 2 56
e 2 59
e 2 60
e 2 61
e 2 64
e 2 65
e 2 67
e 2 68
e 2 72
e 2 75
e 2 76
e 2 77
e 2 78
e 2 80
e 2 81
e 2 83
e 2 84
e 2 85
e 2 86
e 2 87
e 2 94
e 2 95
e 2 96
e 2 98
e 3 6
e 3 9
e 3 10
e 3 12
e 3 14
e 3 16
e 3 17
e 3 22
e 3 27
e 3 31
e 3 33
e 3 34
e 3 36
e 3 38
e 3 41
e 3 46
e 3 47
e 3 48
e 3 52
e 3 53
e 3 55
e 3 56
e 3 57
e 3 60
e 3 61
e 3 62
e 3 63
e 3 64
e 3 65
e 3 66
e 3 69
e 3 70
e 3 71
e 3 74
e 3 75
e 3 76
e 3 78
e 3 79
e 3 82
e 3 84
e 3 85
e 3 86
e 3 87
e 3 88
e 3 89
e 3 91
e 3 92
e 3 93
e 3 95
e 3 96
e 3 97
e 4 6
e 4 8
e 4 9
e 4 10
e 4 12
e 4 13
e 4 14
e 4 16
e 4 17
e 4 21
e 4 24
e 4 27
e 4 30
e 4 35
e 4 36
e 4 41
e 4 42
e 4 44
e 4 47
e 4 48
e 4 54
e 4 58
e 4 60
e 4 62
e 4 64
e 4 65
e 4 66
e 4 69
e 4 70
e 4 71
e 4 73
e 4 74
e 4 77
e 4 78
e 4 79
e 4 85
e 4 86
e 4 87
e 4 89
e 4 90
e 4 91
e 4 92
e 4 93
e 4 96
e 4 97
e 5 11
e 5 22
e 5 23
e 5 28
e 5 29
e 5 32
e 5 33
e 5 34
e 5 38
e 5 43
e 5 45
e 5 49
e 5 50
e 5 51
e 5 53
e 5 56
e 5 61
e 5 67
e 5 68
e 5 75
e 5 76
e 5 81
e 5 83
e 5 84
e 5 95
e 6 8
e 6 9
e 6 10
e 6 11
e 6 12
e 6 13
e 6 14
e 6 16
e 6 17
e 6 18
e 6 19
e 6 21
e 6 22
e 6 24
e 6 27
e 6 28
e 6 30
e 6 31
e 6 33
e 6 34
e 6 35
e 6 36
e 6 37
e 6 38
e 6 41
e 6 42
e 6 43
e 6 44
e 6 46
e 6 47
e 6 48
e 6 52
e 6 53
e 6 54
e 6 55
e 6 56
e 6 57
e 6 58
e 6 60
e 6 61
e 6 62
e 6 63
e 6 64
e 6 65
e 6 66
e 6 69
e 6 70
e 6 71
e 6 72
e 6 73
e 6 74
e 6 75
e 6 76
e 6 77
e 6 78
e 6 79
e 6 80
e 6 82
e 6 85
e 6 86
e 6 87
e 6 88
e 6 89
e 6 90
e 6 91
e 6 92
e 6 93
e 6 94
e 6 96
e 6 97
e 7 9
e 7 10
e 7 11
e 7 13
e 7 16
e 7 17
e 7 18
e 7 19
e 7 20
e 7 21
e 7 23
e 7 25
e 7 27
e 7 28
e 7 29
e 7 33
e 7 34
e 7 35
e 7 37
e 7 39
e 7 40
e 7 42
e 7 43
e 7 46
e 7 47
e 7 49
e 7 50
e 7 53
e 7 56
e 7 59
e 7 60
e 7 64
e 7 65
e 7 66
e 7 67
e 7 72
e 7 77
e 7 78
e 7 80
e 7 81
e 7 83
e 7 85
e 7 86
e 7 87
e 7 94
e 7 95
e 7 96
e 7 98
e 8 9
e 8 10
e 8 12
e 8 13
e 8 14
e 8 16
e 8 17
e 8 21
e 8 24
e 8 27
e 8 30
e 8 35
e 8 36
e 8 41
e 8 42
e 8 44
e 8 47
e 8 48
e 8 54
e 8 57
e 8 58
e 8 60
e 8 62
e 8 64
e 8 65
e 8 66
e 8 69
e 8 70
e 8 71
e 8 73
e 8 74
e 8 77
e 8 78
e 8 79
e 8 85
e 8 86
e 8 87
e 8 88
e 8 89
e 8 90
e 8 91
e 8 92
e 8 93
e 8 96
e 8 97
e 9 10
e 9 11
e 9 12
e 9 13
e 9 14
e 9 16
e 9 17
e 9 18
e 9 19
e 9 21
e 9 22
e 9 23
e 9 24
e 9 27
e 9 28
e 9 29
e 9 30
e 9 33
e 9 34
e 9 35
e 9 36
e 9 37
e 9 38
e 9 39
e 9 41
e 9 42
e 9 43
e 9 44
e 9 46
e 9 47
e 9 48
e 9 53
e 9 54
e 9 56
e 9 57
e 9 58
e 9 59
e 9 60
e 9 61
e 9 62
e 9 63
e 9 64
e 9 65
e 9 66
e 9 67
e 9 69
e 9 70
e 9 71
e 9 72
e 9 73
e 9 74
e 9 75
e 9 76
e 9 77
e 9 78
e 9 79
e 9 80
e 9 81
e 9 82
e 9 84
e 9 85
e 9 86
e 9 87
e 9 88
e 9 89
e 9 90
e 9 91
e 9 92
e 9 93
e 9 94
e 9 95
e 9 96
e 9 97
e 9 98
e 10 11
e 10 12
e 10 13
e 10 14
e 10 16
e 10 17
e 10 18
e 10 19
e 10 21
e 10 22
e 10 23
e 10 24
e 10 27
e 10 28
e 10 29
e 10 30
e 10 33
e 10 34
e 10 35
e 10 36
e 10 37
e 10 38
e 10 39
e 10 41
e 10 42
e 10 43
e 10 44
e 10 46
e 10 47
e 10 48
e 10 53
e 10 54
e 10 56
e 10 57
e 10 58
e 10 60
e 10 61
e 10 62
e 10 63
e 10 64
e 10 65
e 10 66
e 10 67
e 10 69
e 10 70
e 10 71
e 10 72
e 10 73
e 10 74
e 10 75
e 10 76
e 10 77
e 10 78
e 10 79
e 10 80
e 10 81
e 10 82
e 10 85
e 10 86
e 10 87
e 10 88
e 10 89
e 10 90
e 10 91
e 10 92
e 10 93
e 10 94
e 10 95
e 10 96
e 10 97
e 10 98
e 11 13
e 11 16
e 11 17
e 11 18
e 11 19
e 11 20
e 11 21
e 11 22
e 11 23
e 11 25
e 11 26
e 11 27
e 11 28
e 11 29
e 11 32
e 11 33
e 11 34
e 11 35
e 11 37
e 11 38
e 11 39
e 11 42
e 11 43
e 11 45
e 11 46
e 11 47
e 11 48
e 11 49
e 11 50
e 11 51
e 11 53
e 11 56
e 11 59
e 11 60
e 11 61
e 11 64
e 11 65
e 11 66
e 11 67
e 11 68
e 11 72
e 11 75
e 11 76
e 11 77
e 11 78
e 11 80
e 11 81
e 11 83
e 11 84
e 11 85
e 11 86
e 11 87
e 11 94
e 11 95
e 11 96
e 11 98
e 12 13
e 12 14
e 12 16
e 12 17
e 12 21
e 12 22
e 12 24
e 12 27
e 12 30
e 12 31
e 12 33
e 12 34
e 12 36
e 12 38
e 12 41
e 12 44
e 12 46
e 12 47
e 12 48
e 12 52
e 12 53
e 12 54
e 12 55
e 12 56
e 12 57
e 12 58
e 12 60
e 12 61
e 12 62
e 12 63
e 12 64
e 12 65
e 12 66
e 12 69
e 12 70
e 12 71
e 12 73
e 12 74
e 12 75
e 12 76
e 12 77
e 12 78
e 12 79
e 12 82
e 12 85
e 12 86
e 12 87
e 12 88
e 12 89
e 12 90
e 12 91
e 12 92
e 12 93
e 12 96
e 12 97
e 13 14
e 13 16
e 13 17
e 13 18
e 13 19
e 13 21
e 13 24
e 13 27
e 13 30
e 13 33
e 13 35
e 13 36
e 13 37
e 13 41
e 13 42
e 13 44
e 13 46
e 13 47
e 13 48
e 13 53
e 13 54
e 13 56
e 13 58
e 13 60
e 13 62
e 13 64
e 13 65
e 13 66
e 13 69
e 13 70
e 13 71
e 13 72
e 13 73
e 13 74
e 13 77
e 13 78
e 13 79
e 13 80
e 13 85
e 13 86
e 13 87
e 13 89
e 13 90
e 13 91
e 13 92
e 13 93
e 13 94
e 13 96
e 13 97
e 14 16
e 14 17
e 14 21
e 14 24
e 14 27
e 14 30
e 14 31
e 14 35
e 14 36
e 14 41
e 14 44
e 14 46
e 14 47
e 14 48
e 14 54
e 14 56
e 14 57
e 14 58
e 14 60
e 14 61
e 14 62
e 14 63
e 14 64
e 14 65
e 14 66
e 14 69
e 14 70
e 14 71
e 14 73
e 14 74
e 14 75
e 14 77
e 14 78
e 14 79
e 14 82
e 14 85
e 14 86
e 14 87
e 14 88
e 14 89
e 14 90
e 14 91
e 14 92
e 14 93
e 14 96
e 14 97
e 15 25
e 15 26
e 15 40
e 16 17
e 16 18
e 16 19
e 16 21
e 16 22
e 16 23
e 16 24
e 16 27
e 16 28
e 16 29
e 16 30
e 16 33
e 16 34
e 16 35
e 16 36
e 16 37
e 16 38
e 16 39
e 16 41
e 16 42
e 16 43
e 16 44
e 16 46
e 16 47
e 16 48
e 16 53
e 16 54
e 16 56
e 16 57
e 16 58
e 16 59
e 16 60
e 16 61
e 16 62
e 16 63
e 16 64
e 16 65
e 16 66
e 16 67
e 16 69
e 16 70
e 16 71
e 16 72
e 16 73
e 16 74
e 16 75
e 16 76
e 16 77
e 16 78
e 16 79
e 16 80
e 16 81
e 16 82
e 16 83
e 16 84
e 16 85
e 16 86
e 16 87
e 16 88
e 16 89
e 16 90
e 16 91
e 16 92
e 16 93
e 16 94
e 16 95
e 16 96
e 16 97
e 16 98
e 17 18
e 17 19
e 17 21
e 17 22
e 17 24
e 17 27
e 17 28
e 17 29
e 17 30
e 17 33
e 17 34
e 17 35
e 17 36
e 17 37
e 17 41
e 17 42
e 17 43
e 17 44
e 17 46
e 17 47
e 17 48
e 17 53
e 17 54
e 17 56
e 17 57
e 17 58
e 17 60
e 17 61
e 17 62
e 17 63
e 17 64
e 17 65
e 17 66
e 17 67
e 17 69
e 17 70
e 17 71
e 17 72
e 17 73
e 17 74
e 17 75
e 17 77
e 17 78
e 17 79
e 17 80
e 17 82
e 17 85
e 17 86
e 17 87
e 17 88
e 17 89
e 17 90
e 17 91
e 17 92
e 17 93
e 17 94
e 17 96
e 17 97
e 17 98
e 18 19
e 18 20
e 18 21
e 18 22
e 18 23
e 18 25
e 18 27
e 18 28
e 18 29
e 18 30
e 18 33
e 18 34
e 18 35
e 18 36
e 18 37
e 18 38
e 18 39
e 18 40
e 18 42
e 18 43
e 18 46
e 18 47
e 18 48
e 18 49
e 18 50
e 18 51
e 18 53
e 18 54
e 18 56
e 18 59
e 18 60
e 18 61
e 18 64
e 18 65
e 18 66
e 18 67
e 18 68
e 18 69
e 18 71
e 18 72
e 18 74
e 18 75
e 18 76
e 18 77
e 18 78
e 18 79
e 18 80
e 18 81
e 18 83
e 18 84
e 18 85
e 18 86
e 18 87
e 18 89
e 18 91
e 18 94
e 18 95
e 18 96
e 18 98
e 19 20
e 19 21
e 19 22
e 19 23
e 19 27
e 19 28
e 19 29
e 19 30
e 19 33
e 19 34
e 19 35
e 19 36
e 19 37
e 19 39
e 19 40
e 19 42
e 19 43
e 19 46
e 19 47
e 19 48
e 19 49
e 19 53
e 19 54
e 19 56
e 19 58
e 19 59
e 19 60
e 19 61
e 19 64
e 19 65
e 19 66
e 19 67
e 19 69
e 19 70
e 19 71
e 19 72
e 19 73
e 19 74
e 19 76
e 19 77
e 19 78
e 19 79
e 19 80
e 19 81
e 19 83
e 19 85
e 19 86
e 19 87
e 19 89
e 19 91
e 19 93
e 19 94
e 19 96
e 19 98
e 20 25
e 20 26
e 20 28
e 20 29
e 20 37
e 20 39
e 20 40
e 20 49
e 20 51
e 20 59
e 20 67
e 20 72
e 20 80
e 20 83
e 20 94
e 20 98
e 21 22
e 21 23
e 21 24
e 21 27
e 21 28
e 21 29
e 21 30
e 21 33
e 21 34
e 21 35
e 21 36
e 21 37
e 21 39
e 21 41
e 21 42
e 21 43
e 21 44
e 21 46
e 21 47
e 21 48
e 21 53
e 21 54
e 21 56
e 21 58
e 21 59
e 21 60
e 21 61
e 21 62
e 21 64
e 21 65
e 21 66
e 21 67
e 21 69
e 21 70
e 21 71
e 21 72
e 21 73
e 21 74
e 21 75
e 21 77
e 21 78
e 21 79
e 21 80
e 21 85
e 21 86
e 21 87
e 21 88
e 21 89
e 21 90
e 21 91
e 21 92
e 21 93
e 21 94
e 21 96
e 21 97
e 21 98
e 22 23
e 22 27
e 22 28
e 22 29
e 22 31
e 22 32
e 22 33
e 22 34
e 22 38
e 22 43
e 22 46
e 22 47
e 22 48
e 22 50
e 22 52
e 22 53
e 22 55
e 22 56
e 22 57
e 22 60
e 22 61
e 22 63
e 22 64
e 22 65
e 22 67
e 22 68
e 22 69
e 22 75
e 22 76
e 22 77
e 22 80
e 22 81
e 22 82
e 22 84
e 22 85
e 22 86
e 22 87
e 22 88
e 22 91
e 22 92
e 22 95
e 22 96
e 22 97
e 23 25
e 23 26
e 23 27
e 23 28
e 23 29
e 23 32
e 23 33
e 23 34
e 23 37
e 23 38
e 23 39
e 23 43
e 23 45
e 23 46
e 23 47
e 23 49
e 23 50
e 23 51
e 23 53
e 23 56
e 23 59
e 23 61
e 23 64
e 23 65
e 23 67
e 23 68
e 23 72
e 23 75
e 23 76
e 23 77
e 23 80
e 23 81
e 23 83
e 23 84
e 23 85
e 23 94
e 23 95
e 23 96
e 23 98
e 24 27
e 24 30
e 24 35
e 24 36
e 24 41
e 24 42
e 24 44
e 24 46
e 24 47
e 24 48
e 24 54
e 24 57
e 24 58
e 24 60
e 24 62
e 24 64
e 24 65
e 24 66
e 24 69
e 24 70
e 24 71
e 24 73
e 24 74
e 24 77
e 24 78
e 24 79
e 24 85
e 24 86
e 24 87
e 24 89
e 24 90
e 24 91
e 24 92
e 24 93
e 24 96
e 24 97
e 25 26
e 25 28
e 25 29
e 25 32
e 25 37
e 25 39
e 25 40
e 25 45
e 25 49
e 25 51
e 25 59
e 25 67
e 25 83
e 25 94
e 25 98
e 26 28
e 26 29
e 26 32
e 26 39
e 26 40
e 26 45
e 26 49
e 26 51
e 26 59
e 26 67
e 26 83
e 26 98
e 27 28
e 27 29
e 27 30
e 27 33
e 27 34
e 27 35
e 27 36
e 27 37
e 27 39
e 27 41
e 27 42
e 27 43
e 27 44
e 27 46
e 27 47
e 27 48
e 27 53
e 27 54
e 27 56
e 27 57
e 27 58
e 27 59
e 27 60
e 27 61
e 27 62
e 27 63
e 27 64
e 27 65
e 27 66
e 27 67
e 27 69
e 27 70
e 27 71
e 27 72
e 27 73
e 27 74
e 27 75
e 27 76
e 27 77
e 27 78
e 27 79
e 27 80
e 27 81
e 27 82
e 27 85
e 27 86
e 27 87
e 27 88
e 27 89
e 27 90
e 27 91
e 27 92
e 27 93
e 27 94
e 27 96
e 27 97
e 27 98
e 28 29
e 28 32
e 28 33
e 28 34
e 28 35
e 28 37
e 28 38
e 28 39
e 28 43
e 28 45
e 28 46
e 28 47
e 28 49
e 28 50
e 28 51
e 28 53
e 28 56
e 28 59
e 28 61
e 28 64
e 28 65
e 28 67
e 28 68
e 28 72
e 28 75
e 28 76
e 28 77
e 28 80
e 28 81
e 28 83
e 28 84
e 28 85
e 28 86
e 28 87
e 28 94
e 28 95
e 28 96
e 28 98
e 29 32
e 29 33
e 29 34
e 29 35
e 29 37
e 29 38
e 29 39
e 29 40
e 29 42
e 29 43
e 29 45
e 29 46
e 29 47
e 29 49
e 29 50
e 29 51
e 29 53
e 29 56
e 29 59
e 29 60
e 29 64
e 29 65
e 29 67
e 29 68
e 29 72
e 29 76
e 29 77
e 29 80
e 29 81
e 29 83
e 29 84
e 29 85
e 29 86
e 29 87
e 29 94
e 29 95
e 29 96
e 29 98
e 30 33
e 30 35
e 30 36
e 30 37
e 30 41
e 30 42
e 30 44
e 30 46
e 30 47
e 30 48
e 30 54
e 30 56
e 30 57
e 30 58
e 30 60
e 30 62
e 30 64
e 30 65
e 30 66
e 30 69
e 30 70
e 30 71
e 30 72
e 30 73
e 30 74
e 30 77
e 30 78
e 30 79
e 30 80
e 30 85
e 30 86
e 30 87
e 30 88
e 30 89
e 30 90
e 30 91
e 30 92
e 30 93
e 30 96
e 30 97
e 31 34
e 31 36
e 31 38
e 31 41
e 31 48
e 31 52
e 31 55
e 31 57
e 31 61
e 31 63
e 31 69
e 31 74
e 31 75
e 31 76
e 31 82
e 31 88
e 31 91
e 31 92
e 31 96
e 31 97
e 32 33
e 32 38
e 32 43
e 32 45
e 32 49
e 32 50
e 32 51
e 32 53
e 32 67
e 32 68
e 32 76
e 32 81
e 32 83
e 32 84
e 32 95
e 33 34
e 33 35
e 33 36
e 33 37
e 33 38
e 33 39
e 33 42
e 33 43
e 33 45
e 33 46
e 33 47
e 33 48
e 33 49
e 33 50
e 33 51
e 33 53
e 33 56
e 33 59
e 33 60
e 33 61
e 33 63
e 33 64
e 33 65
e 33 66
e 33 67
e 33 68
e 33 69
e 33 72
e 33 74
e 33 75
e 33 76
e 33 77
e 33 78
e 33 79
e 33 80
e 33 81
e 33 82
e 33 83
e 33 84
e 33 85
e 33 86
e 33 87
e 33 88
e 33 91
e 33 94
e 33 95
e 33 96
e 33 98
e 34 35
e 34 36
e 34 37
e 34 38
e 34 41
e 34 43
e 34 46
e 34 47
e 34 48
e 34 50
e 34 52
e 34 53
e 34 55
e 34 56
e 34 57
e 34 60
e 34 61
e 34 63
e 34 64
e 34 65
e 34 66
e 34 67
e 34 68
e 34 69
e 34 70
e 34 72
e 34 74
e 34 75
e 34 76
e 34 77
e 34 78
e 34 79
e 34 80
e 34 81
e 34 82
e 34 84
e 34 85
e 34 86
e 34 87
e 34 88
e 34 89
e 34 91
e 34 92
e 34 94
e 34 95
e 34 96
e 34 97
e 34 98
e 35 36
e 35 37
e 35 39
e 35 41
e 35 42
e 35 44
e 35 46
e 35 47
e 35 48
e 35 53
e 35 54
e 35 56
e 35 58
e 35 59
e 35 60
e 35 61
e 35 62
e 35 64
e 35 65
e 35 66
e 35 67
e 35 69
e 35 70
e 35 71
e 35 72
e 35 73
e 35 74
e 35 77
e 35 78
e 35 79
e 35 80
e 35 85
e 35 86
e 35 87
e 35 89
e 35 90
e 35 91
e 35 92
e 35 93
e 35 94
e 35 96
e 35 98
e 36 41
e 36 42
e 36 44
e 36 46
e 36 47
e 36 48
e 36 54
e 36 56
e 36 57
e 36 58
e 36 60
e 36 61
e 36 62
e 36 63
e 36 64
e 36 65
e 36 66
e 36 69
e 36 70
e 36 71
e 36 73
e 36 74
e 36 75
e 36 77
e 36 78
e 36 79
e 36 80
e 36 82
e 36 85
e 36 86
e 36 87
e 36 88
e 36 89
e 36 90
e 36 91
e 36 92
e 36 93
e 36 96
e 36 97
e 37 38
e 37 39
e 37 40
e 37 42
e 37 43
e 37 46
e 37 47
e 37 49
e 37 50
e 37 51
e 37 53
e 37 56
e 37 59
e 37 60
e 37 61
e 37 64
e 37 65
e 37 66
e 37 67
e 37 72
e 37 74
e 37 76
e 37 77
e 37 78
e 37 79
e 37 80
e 37 81
e 37 83
e 37 84
e 37 85
e 37 86
e 37 87
e 37 94
e 37 95
e 37 96
e 37 98
e 38 43
e 38 45
e 38 46
e 38 47
e 38 50
e 38 51
e 38 53
e 38 55
e 38 56
e 38 57
e 38 61
e 38 63
e 38 64
e 38 65
e 38 67
e 38 68
e 38 69
e 38 75
e 38 76
e 38 77
e 38 81
e 38 82
e 38 83
e 38 84
e 38 88
e 38 95
e 38 96
e 38 98
e 39 40
e 39 42
e 39 43
e 39 46
e 39 47
e 39 49
e 39 50
e 39 51
e 39 53
e 39 56
e 39 59
e 39 64
e 39 65
e 39 67
e 39 72
e 39 76
e 39 77
e 39 80
e 39 81
e 39 83
e 39 85
e 39 86
e 39 94
e 39 95
e 39 96
e 39 98
e 40 49
e 40 59
e 40 67
e 40 72
e 40 80
e 40 83
e 40 94
e 40 98
e 41 42
e 41 44
e 41 46
e 41 47
e 41 48
e 41 52
e 41 54
e 41 55
e 41 56
e 41 57
e 41 58
e 41 60
e 41 61
e 41 62
e 41 63
e 41 64
e 41 65
e 41 66
e 41 69
e 41 70
e 41 71
e 41 73
e 41 74
e 41 75
e 41 77
e 41 78
e 41 79
e 41 82
e 41 85
e 41 86
e 41 87
e 41 88
e 41 89
e 41 90
e 41 91
e 41 92
e 41 93
e 41 96
e 41 97
e 42 46
e 42 47
e 42 48
e 42 53
e 42 54
e 42 56
e 42 58
e 42 59
e 42 60
e 42 62
e 42 64
e 42 65
e 42 66
e 42 67
e 42 69
e 42 70
e 42 71
e 42 72
e 42 73
e 42 74
e 42 77
e 42 78
e 42 79
e 42 80
e 42 85
e 42 86
e 42 87
e 42 89
e 42 91
e 42 93
e 42 94
e 42 96
e 42 98
e 43 45
e 43 46
e 43 47
e 43 49
e 43 50
e 43 51
e 43 53
e 43 56
e 43 59
e 43 61
e 43 64
e 43 65
e 43 67
e 43 68
e 43 72
e 43 75
e 43 76
e 43 77
e 43 80
e 43 81
e 43 82
e 43 83
e 43 84
e 43 85
e 43 86
e 43 87
e 43 94
e 43 95
e 43 96
e 43 98
e 44 47
e 44 48
e 44 54
e 44 57
e 44 58
e 44 60
e 44 62
e 44 64
e 44 65
e 44 66
e 44 69
e 44 70
e 44 71
e 44 73
e 44 74
e 44 78
e 44 79
e 44 85
e 44 86
e 44 87
e 44 88
e 44 89
e 44 90
e 44 91
e 44 92
e 44 93
e 44 96
e 44 97
e 45 49
e 45 50
e 45 51
e 45 53
e 45 67
e 45 68
e 45 76
e 45 81
e 45 83
e 45 84
e 45 95
e 45 98
e 46 47
e 46 48
e 46 49
e 46 50
e 46 51
e 46 53
e 46 54
e 46 56
e 46 57
e 46 58
e 46 59
e 46 60
e 46 61
e 46 62
e 46 63
e 46 64
e 46 65
e 46 66
e 46 67
e 46 68
e 46 69
e 46 70
e 46 71
e 46 72
e 46 73
e 46 74
e 46 75
e 46 76
e 46 77
e 46 78
e 46 79
e 46 80
e 46 81
e 46 82
e 46 83
e 46 84
e 46 85
e 46 86
e 46 87
e 46 88
e 46 89
e 46 91
e 46 92
e 46 93
e 46 94
e 46 95
e 46 96
e 46 97
e 46 98
e 47 48
e 47 49
e 47 53
e 47 54
e 47 56
e 47 57
e 47 58
e 47 59
e 47 60
e 47 61
e 47 62
e 47 63
e 47 64
e 47 65
e 47 66
e 47 67
e 47 69
e 47 70
e 47 71
e 47 72
e 47 73
e 47 74
e 47 75
e 47 76
e 47 77
e 47 78
e 47 79
e 47 80
e 47 81
e 47 83
e 47 84
e 47 85
e 47 86
e 47 87
e 47 88
e 47 89
e 47 90
e 47 91
e 47 92
e 47 93
e 47 94
e 47 95
e 47 96
e 47 97
e 47 98
e 48 52
e 48 53
e 48 54
e 48 55
e 48 56
e 48 57
e 48 58
e 48 60
e 48 61
e 48 62
e 48 63
e 48 64
e 48 65
e 48 66
e 48 69
e 48 70
e 48 71
e 48 72
e 48 73
e 48 74
e 48 75
e 48 76
e 48 77
e 48 78
e 48 79
e 48 80
e 48 82
e 48 85
e 48 86
e 48 87
e 48 88
e 48 89
e 48 90
e 48 91
e 48 92
e 48 93
e 48 96
e 48 97
e 49 50
e 49 51
e 49 53
e 49 56
e 49 59
e 49 67
e 49 68
e 49 72
e 49 77
e 49 80
e 49 81
e 49 83
e 49 94
e 49 95
e 49 98
e 50 51
e 50 53
e 50 56
e 50 61
e 50 64
e 50 67
e 50 68
e 50 75
e 50 76
e 50 77
e 50 81
e 50 83
e 50 84
e 50 94
e 50 95
e 50 96
e 50 98
e 51 53
e 51 56
e 51 59
e 51 67
e 51 68
e 51 76
e 51 81
e 51 83
e 51 84
e 51 95
e 51 98
e 52 55
e 52 57
e 52 61
e 52 63
e 52 69
e 52 75
e 52 82
e 52 88
e 52 91
e 52 92
e 52 97
e 53 56
e 53 57
e 53 59
e 53 60
e 53 61
e 53 63
e 53 64
e 53 65
e 53 66
e 53 67
e 53 68
e 53 69
e 53 72
e 53 74
e 53 75
e 53 76
e 53 77
e 53 78
e 53 80
e 53 81
e 53 82
e 53 83
e 53 84
e 53 85
e 53 86
e 53 87
e 53 88
e 53 91
e 53 94
e 53 95
e 53 96
e 53 98
e 54 56
e 54 57
e 54 58
e 54 60
e 54 62
e 54 64
e 54 65
e 54 66
e 54 69
e 54 70
e 54 71
e 54 73
e 54 74
e 54 77
e 54 78
e 54 79
e 54 80
e 54 85
e 54 86
e 54 87
e 54 88
e 54 89
e 54 90
e 54 91
e 54 92
e 54 93
e 54 96
e 54 97
e 55 57
e 55 61
e 55 63
e 55 69
e 55 75
e 55 82
e 55 88
e 55 91
e 55 92
e 55 96
e 55 97
e 56 57
e 56 58
e 56 59
e 56 60
e 56 61
e 56 62
e 56 63
e 56 64
e 56 65
e 56 66
e 56 67
e 56 68
e 56 69
e 56 70
e 56 71
e 56 72
e 56 73
e 56 74
e 56 75
e 56 76
e 56 77
e 56 78
e 56 79
e 56 80
e 56 81
e 56 82
e 56 83
e 56 84
e 56 85
e 56 86
e 56 87
e 56 88
e 56 89
e 56 91
e 56 92
e 56 93
e 56 94
e 56 95
e 56 96
e 56 97
e 56 98
e 57 58
e 57 60
e 57 61
e 57 62
e 57 63
e 57 64
e 57 65
e 57 66
e 57 69
e 57 70
e 57 71
e 57 74
e 57 75
e 57 76
e 57 78
e 57 79
e 57 82
e 57 84
e 57 85
e 57 86
e 57 87
e 57 88
e 57 89
e 57 91
e 57 92
e 57 93
e 57 96
e 57 97
e 58 60
e 58 62
e 58 64
e 58 65
e 58 66
e 58 69
e 58 70
e 58 71
e 58 73
e 58 74
e 58 77
e 58 78
e 58 79
e 58 85
e 58 86
e 58 87
e 58 88
e 58 89
e 58 90
e 58 91
e 58 92
e 58 93
e 58 96
e 58 97
e 59 64
e 59 65
e 59 67
e 59 72
e 59 77
e 59 80
e 59 81
e 59 83
e 59 94
e 59 96
e 59 98
e 60 61
e 60 62
e 60 63
e 60 64
e 60 65
e 60 66
e 60 67
e 60 69
e 60 70
e 60 71
e 60 72
e 60 73
e 60 74
e 60 75
e 60 77
e 60 78
e 60 79
e 60 80
e 60 85
e 60 86
e 60 87
e 60 88
e 60 89
e 60 90
e 60 91
e 60 92
e 60 93
e 60 94
e 60 96
e 60 97
e 60 98
e 61 62
e 61 63
e 61 64
e 61 65
e 61 66
e 61 68
e 61 69
e 61 70
e 61 74
e 61 75
e 61 76
e 61 77
e 61 78
e 61 79
e 61 80
e 61 81
e 61 82
e 61 84
e 61 85
e 61 86
e 61 87
e 61 88
e 61 89
e 61 91
e 61 92
e 61 95
e 61 96
e 61 97
e 62 63
e 62 64
e 62 65
e 62 66
e 62 69
e 62 70
e 62 71
e 62 73
e 62 74
e 62 77
e 62 78
e 62 79
e 62 85
e 62 86
e 62 87
e 62 88
e 62 89
e 62 90
e 62 91
e 62 92
e 62 93
e 62 96
e 62 97
e 63 64
e 63 65
e 63 68
e 63 69
e 63 70
e 63 74
e 63 75
e 63 76
e 63 78
e 63 79
e 63 82
e 63 84
e 63 85
e 63 86
e 63 87
e 63 88
e 63 89
e 63 91
e 63 92
e 63 93
e 63 95
e 63 96
e 63 97
e 64 65
e 64 66
e 64 67
e 64 68
e 64 69
e 64 70
e 64 71
e 64 72
e 64 73
e 64 74
e 64 75
e 64 76
e 64 77
e 64 78
e 64 79
e 64 80
e 64 81
e 64 82
e 64 83
e 64 84
e 64 85
e 64 86
e 64 87
e 64 88
e 64 89
e 64 90
e 64 91
e 64 92
e 64 93
e 64 94
e 64 95
e 64 96
e 64 97
e 64 98
e 65 66
e 65 67
e 65 69
e 65 70
e 65 71
e 65 72
e 65 73
e 65 74
e 65 75
e 65 76
e 65 77
e 65 78
e 65 79
e 65 80
e 65 81
e 65 82
e 65 83
e 65 85
e 65 86
e 65 87
e 65 88
e 65 89
e 65 90
e 65 91
e 65 92
e 65 93
e 65 94
e 65 95
e 65 96
e 65 97
e 65 98
e 66 67
e 66 69
e 66 70
e 66 71
e 66 72
e 66 73
e 66 74
e 66 75
e 66 77
e 66 78
e 66 79
e 66 80
e 66 85
e 66 86
e 66 87
e 66 88
e 66 89
e 66 90
e 66 91
e 66 92
e 66 93
e 66 94
e 66 96
e 66 97
e 67 68
e 67 72
e 67 76
e 67 77
e 67 78
e 67 80
e 67 81
e 67 83
e 67 84
e 67 85
e 67 86
e 67 87
e 67 94
e 67 95
e 67 96
e 67 98
e 68 75
e 68 76
e 68 81
e 68 82
e 68 83
e 68 84
e 68 88
e 68 95
e 68 96
e 68 98
e 69 70
e 69 71
e 69 73
e 69 74
e 69 75
e 69 76
e 69 77
e 69 78
e 69 79
e 69 82
e 69 85
e 69 86
e 69 87
e 69 88
e 69 89
e 69 90
e 69 91
e 69 92
e 69 93
e 69 96
e 69 97
e 70 71
e 70 73
e 70 74
e 70 75
e 70 77
e 70 78
e 70 79
e 70 82
e 70 85
e 70 86
e 70 87
e 70 88
e 70 89
e 70 90
e 70 91
e 70 92
e 70 93
e 70 96
e 70 97
e 71 73
e 71 74
e 71 77
e 71 78
e 71 79
e 71 85
e 71 86
e 71 87
e 71 88
e 71 89
e 71 90
e 71 91
e 71 92
e 71 93
e 71 96
e 71 97
e 72 74
e 72 77
e 72 78
e 72 79
e 72 80
e 72 83
e 72 85
e 72 86
e 72 87
e 72 91
e 72 94
e 72 96
e 72 98
e 73 74
e 73 77
e 73 78
e 73 79
e 73 85
e 73 86
e 73 87
e 73 89
e 73 90
e 73 91
e 73 92
e 73 93
e 73 96
e 73 97
e 74 75
e 74 77
e 74 78
e 74 79
e 74 80
e 74 82
e 74 85
e 74 86
e 74 87
e 74 88
e 74 89
e 74 90
e 74 91
e 74 92
e 74 93
e 74 96
e 74 97
e 75 76
e 75 77
e 75 78
e 75 81
e 75 82
e 75 84
e 75 85
e 75 86
e 75 87
e 75 88
e 75 89
e 75 91
e 75 92
e 75 95
e 75 96
e 75 97
e 76 77
e 76 81
e 76 82
e 76 83
e 76 84
e 76 85
e 76 88
e 76 94
e 76 95
e 76 96
e 76 98
e 77 78
e 77 79
e 77 80
e 77 81
e 77 83
e 77 84
e 77 85
e 77 86
e 77 87
e 77 88
e 77 89
e 77 91
e 77 92
e 77 93
e 77 94
e 77 95
e 77 96
e 77 98
e 78 79
e 78 80
e 78 82
e 78 85
e 78 86
e 78 87
e 78 88
e 78 89
e 78 90
e 78 91
e 78 92
e 78 93
e 78 94
e 78 96
e 78 97
e 79 80
e 79 85
e 79 86
e 79 87
e 79 88
e 79 89
e 79 90
e 79 91
e 79 92
e 79 93
e 79 96
e 79 97
e 80 81
e 80 83
e 80 85
e 80 86
e 80 87
e 80 89
e 80 91
e 80 94
e 80 96
e 80 98
e 81 82
e 81 83
e 81 84
e 81 94
e 81 95
e 81 96
e 81 98
e 82 84
e 82 85
e 82 86
e 82 87
e 82 88
e 82 91
e 82 92
e 82 95
e 82 96
e 82 97
e 83 84
e 83 94
e 83 95
e 83 96
e 83 98
e 84 88
e 84 95
e 84 96
e 84 98
e 85 86
e 85 87
e 85 88
e 85 89
e 85 90
e 85 91
e 85 92
e 85 93
e 85 94
e 85 96
e 85 97
e 85 98
e 86 87
e 86 88
e 86 89
e 86 90
e 86 91
e 86 92
e 86 93
e 86 94
e 86 96
e 86 97
e 86 98
e 87 88
e 87 89
e 87 90
e 87 91
e 87 92
e 87 93
e 87 94
e 87 96
e 87 97
e 87 98
e 88 89
e 88 91
e 88 92
e 88 93
e 88 95
e 88 96
e 88 97
e 89 90
e 89 91
e 89 92
e 89 93
e 89 96
e 89 97
e 90 91
e 90 92
e 90 93
e 90 97
e 91 92
e 91 93
e 91 96
e 91 97
e 92 93
e 92 96
e 92 97
e 93 96
e 93 97
e 94 95
e 94 96
e 94 98
e 95 96
e 95 98
e 96 97
e 96 98
